16239.0
[20, 11, 13, 2, 20, 5, 2, 9, 14, 17, 22, 16, 8, 20, 3, 14, 14, 17, 5, 11, 2, 0, 5, 3, 5, 8, 19, 24, 5, 24, 5, 25, 6, 25, 20, 20, 24, 15, 0, 14, 0, 14, 15, 8, 24, 14, 0, 13, 27, 8, 29, 14, 14, 5, 13, 20, 17, 11, 0, 14, 0, 5, 20, 11, 11, 11, 9, 0, 5, 9, 20, 6, 11, 17, 24, 8, 26, 20, 14, 24, 20, 7, 13, 17, 17, 17, 17, 4, 20, 5, 2, 24, 17, 11, 17, 5, 2, 2, 21, 16, 8, 17, 17, 25, 2, 29, 17, 11, 14, 28, 14, 1, 2, 11, 11, 21, 24, 24, 24, 24, 5, 8, 25, 13, 16, 0, 5, 9, 0, 12, 0, 11, 24, 5, 8, 14, 7, 5, 20, 17, 0, 8, 20, 14, 8, 25, 25, 11, 2, 24]